unknown
(model
; cardinality of BoundSet is 2
(declare-sort BoundSet 0)
; rep: @uc_BoundSet_0
; rep: @uc_BoundSet_1
; cardinality of UnboundSet is 1
(declare-sort UnboundSet 0)
(declare-fun groundTerm_3 () UnboundSet)
(define-fun IsVoted ((BOUND_VARIABLE_357 BoundSet) (BOUND_VARIABLE_358 BoundSet)) Bool true)
(define-fun HasCriminalBackground ((BOUND_VARIABLE_365 BoundSet)) Bool false)
)
sat
(model
; cardinality of BoundSet is 1
(declare-sort BoundSet 0)
; rep: @uc_BoundSet_0
; cardinality of UnboundSet is 1
(declare-sort UnboundSet 0)
(declare-fun groundTerm_5 () UnboundSet)
(define-fun IsVoted ((BOUND_VARIABLE_383 BoundSet) (BOUND_VARIABLE_384 BoundSet)) Bool true)
(define-fun HasCriminalBackground ((BOUND_VARIABLE_388 BoundSet)) Bool false)
)
